     Program PWSCF v.6.1 starts on 17Jan2022 at 13: 9: 7

     Current dimensions of program PWSCF are:
     Max number of different atomic species (ntypx) = 10
     Max number of k-points (npk) =  40000
     Max angular momentum in pseudopotentials (lmaxx) =  3
               file C.pbe-rrkjus.UPF: wavefunction(s)  2S 2P renormalized

     gamma-point specific algorithms are used

     Subspace diagonalization in iterative solution of the eigenvalue problem:
     a serial algorithm will be used

     Found symmetry operation: I + (  0.0000  0.2000  0.0000)
     This is a supercell, fractional translations are disabled

     Title:
     graphene5x5(Optimize)

     bravais-lattice index     =            4
     lattice parameter (alat)  =      23.2529  a.u.
     unit-cell volume          =   12388.2925 (a.u.)^3
     number of atoms/cell      =           50
     number of atomic types    =            1
     number of electrons       =       200.00
     number of Kohn-Sham states=          120
     kinetic-energy cutoff     =      25.0000  Ry
     charge density cutoff     =     225.0000  Ry
     convergence threshold     =      1.0E-06
     mixing beta               =       0.7000
     number of iterations used =            8  plain     mixing
     Exchange-correlation      =  SLA  PW   PBE  PBE ( 1  4  3  4 0 0)
     nstep                     =           50

     celldm(1)=  23.252891  celldm(2)=   0.000000  celldm(3)=   1.137758
     celldm(4)=   0.000000  celldm(5)=   0.000000  celldm(6)=   0.000000

     crystal axes: (cart. coord. in units of alat)
               a(1) = (   1.000000   0.000000   0.000000 )
               a(2) = (  -0.500000   0.866025   0.000000 )
               a(3) = (   0.000000   0.000000   1.137758 )

     reciprocal axes: (cart. coord. in units 2 pi/alat)
               b(1) = (  1.000000  0.577350 -0.000000 )
               b(2) = (  0.000000  1.154701  0.000000 )
               b(3) = (  0.000000 -0.000000  0.878921 )

     PseudoPot. # 1 for C  read from file:
     C:\Users\azzam\.burai\.pseudopot/C.pbe-rrkjus.UPF
     MD5 check sum: 00fb224312de0c5b6853bd333518df6f
     Pseudo is Ultrasoft, Zval =  4.0
     Generated by new atomic code, or converted to UPF format
     Using radial grid of  627 points,  4 beta functions with:
                l(1) =   0
                l(2) =   0
                l(3) =   1
                l(4) =   1
     Q(r) pseudized with 0 coefficients

     atomic species   valence    mass     pseudopotential
        C              4.00    12.01070     C ( 1.00)

      8 Sym. Ops., with inversion, found

   Cartesian axes

     site n.     atom                  positions (alat units)
         1           C   tau(   1) = (   0.1000000   0.0577067   0.5688768  )
         2           C   tau(   2) = (   0.0000005   0.1154992   0.5688768  )
         3           C   tau(   3) = (   0.0000000   0.2309118   0.5688768  )
         4           C   tau(   4) = (  -0.1000000   0.2887052   0.5688768  )
         5           C   tau(   5) = (  -0.1000005   0.4041178   0.5688768  )
         6           C   tau(   6) = (  -0.2000005   0.4619111   0.5688768  )
         7           C   tau(   7) = (  -0.2000010   0.5773237   0.5688768  )
         8           C   tau(   8) = (  -0.3000010   0.6351171   0.5688768  )
         9           C   tau(   9) = (  -0.3000015   0.7505297   0.5688768  )
        10           C   tau(  10) = (  -0.4000015   0.8083230   0.5688768  )
        11           C   tau(  11) = (   0.3000010   0.0577067   0.5688768  )
        12           C   tau(  12) = (   0.2000005   0.1154992   0.5688768  )
        13           C   tau(  13) = (   0.2000010   0.2309118   0.5688768  )
        14           C   tau(  14) = (   0.1000000   0.2887052   0.5688768  )
        15           C   tau(  15) = (   0.1000005   0.4041178   0.5688768  )
        16           C   tau(  16) = (  -0.0000005   0.4619111   0.5688768  )
        17           C   tau(  17) = (   0.0000000   0.5773237   0.5688768  )
        18           C   tau(  18) = (  -0.1000010   0.6351171   0.5688768  )
        19           C   tau(  19) = (  -0.1000005   0.7505297   0.5688768  )
        20           C   tau(  20) = (  -0.2000015   0.8083230   0.5688768  )
        21           C   tau(  21) = (   0.5000020   0.0577067   0.5688768  )
        22           C   tau(  22) = (   0.4000015   0.1154992   0.5688768  )
        23           C   tau(  23) = (   0.4000020   0.2309118   0.5688768  )
        24           C   tau(  24) = (   0.3000010   0.2887052   0.5688768  )
        25           C   tau(  25) = (   0.3000015   0.4041178   0.5688768  )
        26           C   tau(  26) = (   0.2000005   0.4619111   0.5688768  )
        27           C   tau(  27) = (   0.2000010   0.5773237   0.5688768  )
        28           C   tau(  28) = (   0.1000000   0.6351171   0.5688768  )
        29           C   tau(  29) = (   0.1000005   0.7505297   0.5688768  )
        30           C   tau(  30) = (  -0.0000005   0.8083230   0.5688768  )
        31           C   tau(  31) = (   0.7000030   0.0577067   0.5688768  )
        32           C   tau(  32) = (   0.6000025   0.1154992   0.5688768  )
        33           C   tau(  33) = (   0.6000030   0.2309118   0.5688768  )
        34           C   tau(  34) = (   0.5000020   0.2887052   0.5688768  )
        35           C   tau(  35) = (   0.5000025   0.4041178   0.5688768  )
        36           C   tau(  36) = (   0.4000015   0.4619111   0.5688768  )
        37           C   tau(  37) = (   0.4000020   0.5773237   0.5688768  )
        38           C   tau(  38) = (   0.3000010   0.6351171   0.5688768  )
        39           C   tau(  39) = (   0.3000015   0.7505297   0.5688768  )
        40           C   tau(  40) = (   0.2000005   0.8083230   0.5688768  )
        41           C   tau(  41) = (   0.9000030   0.0577067   0.5688768  )
        42           C   tau(  42) = (   0.8000035   0.1154992   0.5688768  )
        43           C   tau(  43) = (   0.8000030   0.2309118   0.5688768  )
        44           C   tau(  44) = (   0.7000030   0.2887052   0.5688768  )
        45           C   tau(  45) = (   0.7000025   0.4041178   0.5688768  )
        46           C   tau(  46) = (   0.6000025   0.4619111   0.5688768  )
        47           C   tau(  47) = (   0.6000020   0.5773237   0.5688768  )
        48           C   tau(  48) = (   0.5000020   0.6351171   0.5688768  )
        49           C   tau(  49) = (   0.5000015   0.7505297   0.5688768  )
        50           C   tau(  50) = (   0.4000015   0.8083230   0.5688768  )

     number of k points=     1  gaussian smearing, width (Ry)=  0.0100
                       cart. coord. in units 2pi/alat
        k(    1) = (   0.0000000   0.0000000   0.0000000), wk =   2.0000000

     Initial potential from superposition of free atoms
     Check: negative starting charge=   -0.000345

     starting charge  199.99737, renormalised to  200.00000

     negative rho (up, down):  3.447E-04 0.000E+00
     Starting wfc are  200 randomized atomic wfcs

     Self-consistent Calculation

     iteration #  1     ecut=    25.00 Ry     beta=0.70
     Davidson diagonalization with overlap
     ethr =  1.00E-02,  avg # of iterations =  2.0

     negative rho (up, down):  8.291E-05 0.000E+00

     total energy              =    -568.87212148 Ry
     Harris-Foulkes estimate   =    -571.96667373 Ry
     estimated scf accuracy    <       5.12804684 Ry

[...]

     iteration #  3     ecut=    25.00 Ry     beta=0.70
     Davidson diagonalization with overlap
     WARNING:     1 eigenvalues not converged in regterg
     c_bands:  1 eigenvalues not converged
     ethr =  3.15E-05,  avg # of iterations = 20.0

[...]

     End of self-consistent calculation

          k = 0.0000 0.0000 0.0000 ( 13051 PWs)   bands (ev):

   -21.0582 -20.1161 -20.1159 -20.1158 -20.1157 -20.1155 -20.1155 -18.2688
   -18.2687 -18.2686 -18.2685 -18.2683 -18.2681 -17.3683 -17.3682 -17.3681
   -17.3680 -17.3679 -17.3678 -15.1915 -15.1914 -15.1912 -15.1911 -15.1867
   -15.1864 -14.2302 -14.2299 -14.2203 -14.2202 -14.2200 -14.2199 -12.8674
   -12.8673 -12.8622 -12.8621 -12.8620 -12.8620 -10.4723 -10.4722 -10.4721
   -10.4720 -10.4632 -10.4632 -10.3959 -10.3958 -10.3957 -10.3956 -10.3897
   -10.3895  -9.1658  -9.0248  -9.0247  -9.0148  -9.0148  -9.0147  -9.0147
    -8.0456  -8.0455  -8.0453  -8.0452  -8.0449  -8.0448  -7.7425  -7.7424
    -7.7424  -7.7422  -7.7347  -7.7345  -7.6816  -7.6815  -7.6721  -7.6720
    -7.6719  -7.6718  -6.0834  -6.0834  -6.0832  -6.0830  -6.0722  -6.0720
    -5.9102  -5.9102  -5.9088  -5.9087  -5.9085  -5.9084  -5.0105  -5.0105
    -5.0103  -5.0103  -5.0067  -5.0066  -4.5972  -4.5754  -3.0231  -3.0230
    -3.0229  -3.0228  -3.0155  -3.0153  -0.2176  -0.2173  -0.2066  -0.2065
    -0.2064  -0.2063   1.6526   1.6526   1.6608   1.6608   1.6609   1.6610
     1.7038   2.6577   2.9928   2.9928   2.9928   3.2164   3.4017   3.4019

     the Fermi energy is    -1.0143 ev

!    total energy              =    -569.65405083 Ry
     Harris-Foulkes estimate   =    -569.65405110 Ry
     estimated scf accuracy    <       0.00000039 Ry

     The total energy is the sum of the following terms:

     one-electron contribution =   -3612.78964334 Ry
     hartree contribution      =    1842.21214961 Ry
     xc contribution           =    -175.61499665 Ry
     ewald contribution        =    1376.53843955 Ry
     smearing contrib. (-TS)   =      -0.00000000 Ry

     convergence has been achieved in   7 iterations

     Forces acting on atoms (cartesian axes, Ry/au):

     atom    1 type  1   force =     0.00003062    0.00162490    0.00000000
     atom    2 type  1   force =    -0.00000000   -0.00155102    0.00000000
     atom    3 type  1   force =     0.00000000    0.00158972   -0.00000000
     atom    4 type  1   force =     0.00001191   -0.00157684    0.00000000
     atom    5 type  1   force =     0.00001364    0.00158639   -0.00000000
     atom    6 type  1   force =     0.00001282   -0.00157985    0.00000000
     atom    7 type  1   force =     0.00000984    0.00159390   -0.00000000
     atom    8 type  1   force =     0.00001375   -0.00157175    0.00000000
     atom    9 type  1   force =     0.00001668    0.00157641    0.00000000
     atom   10 type  1   force =     0.00003062   -0.00162490    0.00000000
     atom   11 type  1   force =    -0.00000620    0.00162840    0.00000000
     atom   12 type  1   force =     0.00001668   -0.00157641   -0.00000000
     atom   13 type  1   force =     0.00001375    0.00157175    0.00000000
     atom   14 type  1   force =    -0.00001191   -0.00157684   -0.00000000
     atom   15 type  1   force =    -0.00001364    0.00158639   -0.00000000
     atom   16 type  1   force =     0.00000000   -0.00158934    0.00000000
     atom   17 type  1   force =     0.00000000    0.00158156    0.00000000
     atom   18 type  1   force =    -0.00000561   -0.00158406   -0.00000000
     atom   19 type  1   force =    -0.00001331    0.00157186    0.00000000
     atom   20 type  1   force =    -0.00000620   -0.00162840    0.00000000
     atom   21 type  1   force =     0.00000000    0.00162928    0.00000000
[...]
     atom   37 type  1   force =     0.00001191    0.00157684    0.00000000
     atom   38 type  1   force =    -0.00001375   -0.00157175    0.00000000
     atom   39 type  1   force =    -0.00001668    0.00157641    0.00000000
     atom   40 type  1   force =     0.00000620   -0.00162840    0.00000000
     atom   41 type  1   force =    -0.00003062    0.00162490   -0.00000000
     atom   42 type  1   force =    -0.00001668   -0.00157641    0.00000000
     atom   43 type  1   force =    -0.00001375    0.00157175    0.00000000
     atom   44 type  1   force =    -0.00000984   -0.00159390    0.00000000
     atom   45 type  1   force =    -0.00001282    0.00157985    0.00000000
     atom   46 type  1   force =    -0.00001364   -0.00158639    0.00000000
     atom   47 type  1   force =    -0.00001191    0.00157684   -0.00000000
     atom   48 type  1   force =     0.00000000   -0.00158972    0.00000000
     atom   49 type  1   force =     0.00000000    0.00155102    0.00000000
     atom   50 type  1   force =    -0.00003062   -0.00162490    0.00000000

     Total force =     0.011239     Total SCF correction =     0.001275
     SCF correction compared to forces is large: reduce conv_thr to get better values

     BFGS Geometry Optimization

     number of scf cycles    =   1
     number of bfgs steps    =   0

     energy   new            =    -569.6540508308 Ry

     new trust radius        =       0.0016292767 bohr
     new conv_thr            =       0.0000010000 Ry

ATOMIC_POSITIONS (crystal)
C        0.133358662   0.066714690   0.499998000
C        0.066645489   0.133289979   0.499998000
C        0.133356471   0.266712943   0.499998000
C        0.066645360   0.333289697   0.499998000
C        0.133356975   0.466713778   0.499998000
C        0.066645325   0.533290547   0.499998000
C        0.133356998   0.666715150   0.499998000
C        0.066645566   0.733291949   0.499998000
C        0.133356858   0.866715282   0.499998000
C        0.066644972   0.933290310   0.499998000
C        0.333358165   0.066714864   0.499998000
C        0.266645576   0.133288718   0.499998000
C        0.333357617   0.266712051   0.499998000
C        0.266644336   0.333289697   0.499998000
C        0.333356802   0.466713778   0.499998000
C        0.266644538   0.533290076   0.499998000
C        0.333357269   0.666714538   0.499998000
C        0.266644428   0.733291338   0.499998000
C        0.333356456   0.866715056   0.499998000
C        0.266643302   0.933290136   0.499998000
C        0.533359454   0.066714907   0.499998000
C        0.466645400   0.133288944   0.499998000
C        0.533358090   0.266712662   0.499998000
C        0.466645848   0.333288850   0.499998000
C        0.533358778   0.466713453   0.499998000
C        0.466645222   0.533290547   0.499998000
C        0.533358152   0.666715150   0.499998000
C        0.466645910   0.733291338   0.499998000
C        0.533358600   0.866715056   0.499998000
C        0.466644546   0.933290093   0.499998000
C        0.733360698   0.066714864   0.499998000
C        0.666647544   0.133288944   0.499998000
C        0.733359572   0.266712662   0.499998000
C        0.666646731   0.333289462   0.499998000
C        0.733359462   0.466713924   0.499998000
C        0.666647198   0.533290222   0.499998000
C        0.733359664   0.666714303   0.499998000
C        0.666646383   0.733291949   0.499998000
C        0.733358424   0.866715282   0.499998000
C        0.666645835   0.933290136   0.499998000
C        0.933359028   0.066714690   0.499998000
C        0.866647142   0.133288718   0.499998000
C        0.933358434   0.266712051   0.499998000
C        0.866647002   0.333288850   0.499998000
C        0.933358675   0.466713453   0.499998000
C        0.866647025   0.533290222   0.499998000
C        0.933358640   0.666714303   0.499998000
C        0.866647529   0.733291057   0.499998000
C        0.933358511   0.866714021   0.499998000
C        0.866645338   0.933290310   0.499998000

     Writing output data file espresso.save
     Check: negative starting charge=   -0.000345
     NEW-OLD atomic charge density approx. for the potential
     Check: negative starting charge=   -0.000345

[...]

     Threshold (ethr) on eigenvalues was too large:
     Diagonalizing with lowered threshold

     Davidson diagonalization with overlap
     ethr =  1.39E-08,  avg # of iterations =  2.0

[...]

     Total force =     0.014862     Total SCF correction =     0.001238

     number of scf cycles    =   2
     number of bfgs steps    =   1

     energy   old            =    -569.6540508308 Ry
     energy   new            =    -569.6540289708 Ry

     CASE: energy  _new > energy  _old

     new trust radius        =       0.0006944492 bohr
     new conv_thr            =       0.0000010000 Ry

ATOMIC_POSITIONS (crystal)
C        0.133334758   0.066668393   0.499998000
C        0.066667586   0.133334171   0.499998000
C        0.133333824   0.266667648   0.499998000
C        0.066667531   0.333334625   0.499998000
C        0.133334039   0.466668578   0.499998000
C        0.066667515   0.533335561   0.499998000
C        0.133334048   0.666669736   0.499998000
C        0.066667618   0.733336732   0.499998000
C        0.133333989   0.866670366   0.499998000
C        0.066667365   0.933336607   0.499998000
C        0.333335120   0.066668467   0.499998000
C        0.266667623   0.133333634   0.499998000
C        0.333334886   0.266667268   0.499998000
C        0.266667094   0.333334625   0.499998000
C        0.333334539   0.466668578   0.499998000
C        0.266667180   0.533335360   0.499998000
C        0.333334738   0.666669475   0.499998000
C        0.266667133   0.733336472   0.499998000
C        0.333334391   0.866670270   0.499998000
C        0.266666653   0.933336533   0.499998000
C        0.533336243   0.066668485   0.499998000
C        0.466668121   0.133333730   0.499998000
C        0.533335661   0.266667528   0.499998000
C        0.466668312   0.333334264   0.499998000
C        0.533335955   0.466668439   0.499998000
C        0.466668045   0.533335561   0.499998000
C        0.533335688   0.666669736   0.499998000
C        0.466668339   0.733336472   0.499998000
C        0.533335879   0.866670270   0.499998000
C        0.466667757   0.933336515   0.499998000
C        0.733337347   0.066668467   0.499998000
C        0.666669609   0.133333730   0.499998000
C        0.733336867   0.266667528   0.499998000
C        0.666669262   0.333334525   0.499998000
C        0.733336820   0.466668640   0.499998000
C        0.666669461   0.533335422   0.499998000
C        0.733336906   0.666669375   0.499998000
C        0.666669114   0.733336732   0.499998000
C        0.733336377   0.866670366   0.499998000
C        0.666668880   0.933336533   0.499998000
C        0.933336635   0.066668393   0.499998000
C        0.866670011   0.133333634   0.499998000
C        0.933336382   0.266667268   0.499998000
C        0.866669952   0.333334264   0.499998000
C        0.933336485   0.466668439   0.499998000
C        0.866669961   0.533335422   0.499998000
C        0.933336469   0.666669375   0.499998000
C        0.866670176   0.733336352   0.499998000
C        0.933336414   0.866669829   0.499998000
C        0.866669242   0.933336607   0.499998000

     Writing output data file espresso.save
     Check: negative starting charge=   -0.000345
     NEW-OLD atomic charge density approx. for the potential
     Check: negative starting charge=   -0.000345

[...]

     Self-consistent Calculation

[...]

     Threshold (ethr) on eigenvalues was too large:
     Diagonalizing with lowered threshold

     Davidson diagonalization with overlap
     ethr =  5.77E-09,  avg # of iterations =  2.0

[...]

     total energy              =    -569.65407751 Ry
     Harris-Foulkes estimate   =    -569.65407888 Ry
     estimated scf accuracy    <       0.00000396 Ry

     iteration #  4     ecut=    25.00 Ry     beta=0.70
     Davidson diagonalization with overlap
     ethr =  1.98E-09,  avg # of iterations =  2.0

     negative rho (up, down):  4.690E-05 0.000E+00

     End of self-consistent calculation

          k = 0.0000 0.0000 0.0000 ( 13051 PWs)   bands (ev):

   -21.0582 -20.1159 -20.1159 -20.1158 -20.1158 -20.1157 -20.1157 -18.2686
   -18.2686 -18.2685 -18.2685 -18.2685 -18.2685 -17.3682 -17.3682 -17.3681
   -17.3681 -17.3681 -17.3680 -15.1899 -15.1899 -15.1898 -15.1898 -15.1897
   -15.1897 -14.2236 -14.2235 -14.2235 -14.2235 -14.2234 -14.2234 -12.8640
   -12.8640 -12.8639 -12.8639 -12.8639 -12.8639 -10.4693 -10.4693 -10.4692
   -10.4692 -10.4692 -10.4692 -10.3938 -10.3938 -10.3938 -10.3938 -10.3937
   -10.3937  -9.1658  -9.0183  -9.0182  -9.0182  -9.0182  -9.0181  -9.0181
    -8.0452  -8.0452  -8.0452  -8.0451  -8.0451  -8.0451  -7.7400  -7.7400
    -7.7399  -7.7399  -7.7398  -7.7398  -7.6753  -7.6753  -7.6752  -7.6752
    -7.6752  -7.6752  -6.0797  -6.0797  -6.0797  -6.0797  -6.0796  -6.0796
    -5.9091  -5.9091  -5.9091  -5.9091  -5.9091  -5.9091  -5.0092  -5.0092
    -5.0091  -5.0091  -5.0091  -5.0091  -4.5865  -4.5864  -3.0205  -3.0205
    -3.0204  -3.0204  -3.0204  -3.0204  -0.2102  -0.2102  -0.2101  -0.2101
    -0.2101  -0.2101   1.6581   1.6581   1.6581   1.6581   1.6582   1.6582
     1.7039   2.6578   2.9929   2.9929   2.9929   3.2164   3.4037   3.4038

     the Fermi energy is    -1.0128 ev

!    total energy              =    -569.65407813 Ry
     Harris-Foulkes estimate   =    -569.65407814 Ry
     estimated scf accuracy    <       0.00000002 Ry

     The total energy is the sum of the following terms:

     one-electron contribution =   -3612.79214032 Ry
     hartree contribution      =    1842.21512890 Ry
     xc contribution           =    -175.61542198 Ry
     ewald contribution        =    1376.53835527 Ry
     smearing contrib. (-TS)   =      -0.00000000 Ry

     convergence has been achieved in   4 iterations

     Forces acting on atoms (cartesian axes, Ry/au):

     atom    1 type  1   force =     0.00001354    0.00000644   -0.00000000
     atom    2 type  1   force =     0.00000000    0.00002138    0.00000000
     atom    3 type  1   force =     0.00000000    0.00000110   -0.00000000
     atom    4 type  1   force =    -0.00000686    0.00001091    0.00000000
     atom    5 type  1   force =     0.00000548   -0.00000302   -0.00000000
     atom    6 type  1   force =     0.00000135    0.00001113   -0.00000000
     atom    7 type  1   force =     0.00001636   -0.00000535    0.00000000
     atom    8 type  1   force =     0.00001177    0.00000276    0.00000000
     atom    9 type  1   force =     0.00002324   -0.00002175    0.00000000
     atom   10 type  1   force =     0.00001354   -0.00000644   -0.00000000
     atom   11 type  1   force =     0.00001815    0.00000310    0.00000000
     atom   12 type  1   force =     0.00002324    0.00002175    0.00000000
     atom   13 type  1   force =     0.00001177   -0.00000276    0.00000000
     atom   14 type  1   force =     0.00000686    0.00001091    0.00000000
     atom   15 type  1   force =    -0.00000548   -0.00000302    0.00000000
     atom   16 type  1   force =     0.00000000    0.00001172   -0.00000000
     atom   17 type  1   force =     0.00000000    0.00000940    0.00000000
     atom   18 type  1   force =     0.00001255    0.00001136    0.00000000
     atom   19 type  1   force =     0.00001323   -0.00001909    0.00000000
     atom   20 type  1   force =     0.00001815   -0.00000310    0.00000000
     atom   21 type  1   force =     0.00000000    0.00000944    0.00000000
     atom   22 type  1   force =     0.00001323    0.00001909   -0.00000000
     atom   23 type  1   force =     0.00001255   -0.00001136    0.00000000
     atom   24 type  1   force =     0.00001636    0.00000535    0.00000000
     atom   25 type  1   force =     0.00000135   -0.00001113   -0.00000000
     atom   26 type  1   force =    -0.00000135    0.00001113    0.00000000
     atom   27 type  1   force =    -0.00001636   -0.00000535    0.00000000
     atom   28 type  1   force =    -0.00001255    0.00001136   -0.00000000
     atom   29 type  1   force =    -0.00001323   -0.00001909    0.00000000
     atom   30 type  1   force =     0.00000000   -0.00000944    0.00000000
     atom   31 type  1   force =    -0.00001815    0.00000310    0.00000000
     atom   32 type  1   force =    -0.00001323    0.00001909    0.00000000
     atom   33 type  1   force =    -0.00001255   -0.00001136   -0.00000000
     atom   34 type  1   force =    -0.00000000   -0.00000940    0.00000000
     atom   35 type  1   force =     0.00000000   -0.00001172    0.00000000
     atom   36 type  1   force =     0.00000548    0.00000302    0.00000000
     atom   37 type  1   force =    -0.00000686   -0.00001091   -0.00000000
     atom   38 type  1   force =    -0.00001177    0.00000276    0.00000000
     atom   39 type  1   force =    -0.00002324   -0.00002175    0.00000000
     atom   40 type  1   force =    -0.00001815   -0.00000310    0.00000000
     atom   41 type  1   force =    -0.00001354    0.00000644    0.00000000
     atom   42 type  1   force =    -0.00002324    0.00002175    0.00000000
     atom   43 type  1   force =    -0.00001177   -0.00000276    0.00000000
     atom   44 type  1   force =    -0.00001636    0.00000535   -0.00000000
     atom   45 type  1   force =    -0.00000135   -0.00001113    0.00000000
     atom   46 type  1   force =    -0.00000548    0.00000302   -0.00000000
     atom   47 type  1   force =     0.00000686   -0.00001091    0.00000000
     atom   48 type  1   force =     0.00000000   -0.00000110   -0.00000000
     atom   49 type  1   force =     0.00000000   -0.00002138    0.00000000
     atom   50 type  1   force =    -0.00001354   -0.00000644    0.00000000

     Total force =     0.000119     Total SCF correction =     0.000234
     SCF correction compared to forces is large: reduce conv_thr to get better values

     bfgs converged in   3 scf cycles and   1 bfgs steps
     (criteria: energy <  1.0E-04 Ry, force <  1.0E-03 Ry/Bohr)

     End of BFGS Geometry Optimization

     Final energy   =    -569.6540781275 Ry
Begin final coordinates

ATOMIC_POSITIONS (crystal)
C        0.133334758   0.066668393   0.499998000
C        0.066667586   0.133334171   0.499998000
C        0.133333824   0.266667648   0.499998000
C        0.066667531   0.333334625   0.499998000
C        0.133334039   0.466668578   0.499998000
C        0.066667515   0.533335561   0.499998000
C        0.133334048   0.666669736   0.499998000
C        0.066667618   0.733336732   0.499998000
C        0.133333989   0.866670366   0.499998000
C        0.066667365   0.933336607   0.499998000
C        0.333335120   0.066668467   0.499998000
C        0.266667623   0.133333634   0.499998000
C        0.333334886   0.266667268   0.499998000
C        0.266667094   0.333334625   0.499998000
C        0.333334539   0.466668578   0.499998000
C        0.266667180   0.533335360   0.499998000
C        0.333334738   0.666669475   0.499998000
C        0.266667133   0.733336472   0.499998000
C        0.333334391   0.866670270   0.499998000
C        0.266666653   0.933336533   0.499998000
C        0.533336243   0.066668485   0.499998000
C        0.466668121   0.133333730   0.499998000
C        0.533335661   0.266667528   0.499998000
C        0.466668312   0.333334264   0.499998000
C        0.533335955   0.466668439   0.499998000
C        0.466668045   0.533335561   0.499998000
C        0.533335688   0.666669736   0.499998000
C        0.466668339   0.733336472   0.499998000
C        0.533335879   0.866670270   0.499998000
C        0.466667757   0.933336515   0.499998000
C        0.733337347   0.066668467   0.499998000
C        0.666669609   0.133333730   0.499998000
C        0.733336867   0.266667528   0.499998000
C        0.666669262   0.333334525   0.499998000
C        0.733336820   0.466668640   0.499998000
C        0.666669461   0.533335422   0.499998000
C        0.733336906   0.666669375   0.499998000
C        0.666669114   0.733336732   0.499998000
C        0.733336377   0.866670366   0.499998000
C        0.666668880   0.933336533   0.499998000
C        0.933336635   0.066668393   0.499998000
C        0.866670011   0.133333634   0.499998000
C        0.933336382   0.266667268   0.499998000
C        0.866669952   0.333334264   0.499998000
C        0.933336485   0.466668439   0.499998000
C        0.866669961   0.533335422   0.499998000
C        0.933336469   0.666669375   0.499998000
C        0.866670176   0.733336352   0.499998000
C        0.933336414   0.866669829   0.499998000
C        0.866669242   0.933336607   0.499998000
End final coordinates

     Writing output data file espresso.save

     General routines

     Parallel routines

   This run was terminated on:  13:10:30  17Jan2022

   JOB DONE.